N=40;
D=3;
K=2;
S=28;
B=100;
M=[1 1];
MM=[5 5];
ND=2;
T=15;
C=[
10	2
10	2
10	2
];
beta=[
1	1	0	0	0	1	1	0	0	0	0	0	0	0	0	0	0	0	0	0	0	0	0	0	0	0	0	0	0	0	0	0	0	0	0	0	0	0	0	0
0	1	1	0	0	0	1	1	0	0	0	0	0	0	0	0	0	0	0	0	0	0	0	0	0	0	0	0	0	0	0	0	0	0	0	0	0	0	0	0
0	0	1	1	0	0	0	1	1	0	0	0	0	0	0	0	0	0	0	0	0	0	0	0	0	0	0	0	0	0	0	0	0	0	0	0	0	0	0	0
0	0	0	1	1	0	0	0	1	1	0	0	0	0	0	0	0	0	0	0	0	0	0	0	0	0	0	0	0	0	0	0	0	0	0	0	0	0	0	0
0	0	0	0	0	1	1	0	0	0	1	1	0	0	0	0	0	0	0	0	0	0	0	0	0	0	0	0	0	0	0	0	0	0	0	0	0	0	0	0
0	0	0	0	0	0	1	1	0	0	0	1	1	0	0	0	0	0	0	0	0	0	0	0	0	0	0	0	0	0	0	0	0	0	0	0	0	0	0	0
0	0	0	0	0	0	0	1	1	0	0	0	1	1	0	0	0	0	0	0	0	0	0	0	0	0	0	0	0	0	0	0	0	0	0	0	0	0	0	0
0	0	0	0	0	0	0	0	1	1	0	0	0	1	1	0	0	0	0	0	0	0	0	0	0	0	0	0	0	0	0	0	0	0	0	0	0	0	0	0
0	0	0	0	0	0	0	0	0	0	1	1	0	0	0	1	1	0	0	0	0	0	0	0	0	0	0	0	0	0	0	0	0	0	0	0	0	0	0	0
0	0	0	0	0	0	0	0	0	0	0	1	1	0	0	0	1	1	0	0	0	0	0	0	0	0	0	0	0	0	0	0	0	0	0	0	0	0	0	0
0	0	0	0	0	0	0	0	0	0	0	0	1	1	0	0	0	1	1	0	0	0	0	0	0	0	0	0	0	0	0	0	0	0	0	0	0	0	0	0
0	0	0	0	0	0	0	0	0	0	0	0	0	1	1	0	0	0	1	1	0	0	0	0	0	0	0	0	0	0	0	0	0	0	0	0	0	0	0	0
0	0	0	0	0	0	0	0	0	0	0	0	0	0	0	1	1	0	0	0	1	1	0	0	0	0	0	0	0	0	0	0	0	0	0	0	0	0	0	0
0	0	0	0	0	0	0	0	0	0	0	0	0	0	0	0	1	1	0	0	0	1	1	0	0	0	0	0	0	0	0	0	0	0	0	0	0	0	0	0
0	0	0	0	0	0	0	0	0	0	0	0	0	0	0	0	0	1	1	0	0	0	1	1	0	0	0	0	0	0	0	0	0	0	0	0	0	0	0	0
0	0	0	0	0	0	0	0	0	0	0	0	0	0	0	0	0	0	1	1	0	0	0	1	1	0	0	0	0	0	0	0	0	0	0	0	0	0	0	0
0	0	0	0	0	0	0	0	0	0	0	0	0	0	0	0	0	0	0	0	1	1	0	0	0	1	1	0	0	0	0	0	0	0	0	0	0	0	0	0
0	0	0	0	0	0	0	0	0	0	0	0	0	0	0	0	0	0	0	0	0	1	1	0	0	0	1	1	0	0	0	0	0	0	0	0	0	0	0	0
0	0	0	0	0	0	0	0	0	0	0	0	0	0	0	0	0	0	0	0	0	0	1	1	0	0	0	1	1	0	0	0	0	0	0	0	0	0	0	0
0	0	0	0	0	0	0	0	0	0	0	0	0	0	0	0	0	0	0	0	0	0	0	1	1	0	0	0	1	1	0	0	0	0	0	0	0	0	0	0
0	0	0	0	0	0	0	0	0	0	0	0	0	0	0	0	0	0	0	0	0	0	0	0	0	1	1	0	0	0	1	1	0	0	0	0	0	0	0	0
0	0	0	0	0	0	0	0	0	0	0	0	0	0	0	0	0	0	0	0	0	0	0	0	0	0	1	1	0	0	0	1	1	0	0	0	0	0	0	0
0	0	0	0	0	0	0	0	0	0	0	0	0	0	0	0	0	0	0	0	0	0	0	0	0	0	0	1	1	0	0	0	1	1	0	0	0	0	0	0
0	0	0	0	0	0	0	0	0	0	0	0	0	0	0	0	0	0	0	0	0	0	0	0	0	0	0	0	1	1	0	0	0	1	1	0	0	0	0	0
0	0	0	0	0	0	0	0	0	0	0	0	0	0	0	0	0	0	0	0	0	0	0	0	0	0	0	0	0	0	1	1	0	0	0	1	1	0	0	0
0	0	0	0	0	0	0	0	0	0	0	0	0	0	0	0	0	0	0	0	0	0	0	0	0	0	0	0	0	0	0	1	1	0	0	0	1	1	0	0
0	0	0	0	0	0	0	0	0	0	0	0	0	0	0	0	0	0	0	0	0	0	0	0	0	0	0	0	0	0	0	0	1	1	0	0	0	1	1	0
0	0	0	0	0	0	0	0	0	0	0	0	0	0	0	0	0	0	0	0	0	0	0	0	0	0	0	0	0	0	0	0	0	1	1	0	0	0	1	1
];
alfa=[
0	0	1	1	1	0	0	1	1	1	0	0	0	0	0	0	0	0	0	0	0	0	0	0	0	0	0	0	0	0	0	0	0	0	0	0	0	0	0	0
0	0	0	1	0	0	0	0	0	0	0	0	0	0	0	0	0	0	0	0	0	0	0	0	0	0	0	0	0	0	0	0	0	0	0	0	0	0	0	0
0	0	0	0	0	0	0	0	0	0	0	0	0	0	0	0	0	0	0	0	0	0	1	1	1	0	0	1	1	1	0	0	1	1	1	0	0	0	0	0
0	0	0	0	0	0	0	0	0	0	0	0	0	0	0	0	0	0	0	0	0	0	0	0	0	0	0	0	1	0	0	0	0	0	0	0	0	0	0	0
0	0	0	0	0	0	0	0	0	0	0	0	0	0	0	0	0	0	0	0	0	0	0	0	0	1	1	0	0	0	1	1	0	0	0	1	1	0	0	0
0	0	0	0	0	0	0	0	0	0	0	0	0	0	0	0	0	0	0	0	0	0	0	0	0	0	0	0	0	0	1	0	0	0	0	0	0	0	0	0
];
t=[
5.00	6.71	2.55	1.58	0.71	0.71	2.92	2.12	1.58	1.58	3.54	2.92	2.55	2.55	4.30	3.81	3.54	3.54	5.15	4.74	4.53	4.53	6.04	5.70	5.52	5.52	6.96	6.67	6.52	6.52
5.00	3.16	5.15	4.74	4.53	4.53	4.30	3.81	3.54	3.54	3.54	2.92	2.55	2.55	2.92	2.12	1.58	1.58	2.55	1.58	0.71	0.71	2.55	1.58	0.71	0.71	2.92	2.12	1.58	1.58
6.71	3.16	5.52	5.70	6.04	6.52	4.53	4.74	5.15	5.70	3.54	3.81	4.30	4.95	2.55	2.92	3.54	4.30	1.58	2.12	2.92	3.81	0.71	1.58	2.55	3.54	0.71	1.58	2.55	3.54
2.55	5.15	5.52	1.00	2.00	3.00	1.00	1.41	2.24	3.16	2.00	2.24	2.83	3.61	3.00	3.16	3.61	4.24	4.00	4.12	4.47	5.00	5.00	5.10	5.39	5.83	6.00	6.08	6.32	6.71
1.58	4.74	5.70	1.00	1.00	2.00	1.41	1.00	1.41	2.24	2.24	2.00	2.24	2.83	3.16	3.00	3.16	3.61	4.12	4.00	4.12	4.47	5.10	5.00	5.10	5.39	6.08	6.00	6.08	6.32
0.71	4.53	6.04	2.00	1.00	1.00	2.24	1.41	1.00	1.41	2.83	2.24	2.00	2.24	3.61	3.16	3.00	3.16	4.47	4.12	4.00	4.12	5.39	5.10	5.00	5.10	6.32	6.08	6.00	6.08
0.71	4.53	6.52	3.00	2.00	1.00	3.16	2.24	1.41	1.00	3.61	2.83	2.24	2.00	4.24	3.61	3.16	3.00	5.00	4.47	4.12	4.00	5.83	5.39	5.10	5.00	6.71	6.32	6.08	6.00
2.92	4.30	4.53	1.00	1.41	2.24	3.16	1.00	2.00	3.00	1.00	1.41	2.24	3.16	2.00	2.24	2.83	3.61	3.00	3.16	3.61	4.24	4.00	4.12	4.47	5.00	5.00	5.10	5.39	5.83
2.12	3.81	4.74	1.41	1.00	1.41	2.24	1.00	1.00	2.00	1.41	1.00	1.41	2.24	2.24	2.00	2.24	2.83	3.16	3.00	3.16	3.61	4.12	4.00	4.12	4.47	5.10	5.00	5.10	5.39
1.58	3.54	5.15	2.24	1.41	1.00	1.41	2.00	1.00	1.00	2.24	1.41	1.00	1.41	2.83	2.24	2.00	2.24	3.61	3.16	3.00	3.16	4.47	4.12	4.00	4.12	5.39	5.10	5.00	5.10
1.58	3.54	5.70	3.16	2.24	1.41	1.00	3.00	2.00	1.00	3.16	2.24	1.41	1.00	3.61	2.83	2.24	2.00	4.24	3.61	3.16	3.00	5.00	4.47	4.12	4.00	5.83	5.39	5.10	5.00
3.54	3.54	3.54	2.00	2.24	2.83	3.61	1.00	1.41	2.24	3.16	1.00	2.00	3.00	1.00	1.41	2.24	3.16	2.00	2.24	2.83	3.61	3.00	3.16	3.61	4.24	4.00	4.12	4.47	5.00
2.92	2.92	3.81	2.24	2.00	2.24	2.83	1.41	1.00	1.41	2.24	1.00	1.00	2.00	1.41	1.00	1.41	2.24	2.24	2.00	2.24	2.83	3.16	3.00	3.16	3.61	4.12	4.00	4.12	4.47
2.55	2.55	4.30	2.83	2.24	2.00	2.24	2.24	1.41	1.00	1.41	2.00	1.00	1.00	2.24	1.41	1.00	1.41	2.83	2.24	2.00	2.24	3.61	3.16	3.00	3.16	4.47	4.12	4.00	4.12
2.55	2.55	4.95	3.61	2.83	2.24	2.00	3.16	2.24	1.41	1.00	3.00	2.00	1.00	3.16	2.24	1.41	1.00	3.61	2.83	2.24	2.00	4.24	3.61	3.16	3.00	5.00	4.47	4.12	4.00
4.30	2.92	2.55	3.00	3.16	3.61	4.24	2.00	2.24	2.83	3.61	1.00	1.41	2.24	3.16	1.00	2.00	3.00	1.00	1.41	2.24	3.16	2.00	2.24	2.83	3.61	3.00	3.16	3.61	4.24
3.81	2.12	2.92	3.16	3.00	3.16	3.61	2.24	2.00	2.24	2.83	1.41	1.00	1.41	2.24	1.00	1.00	2.00	1.41	1.00	1.41	2.24	2.24	2.00	2.24	2.83	3.16	3.00	3.16	3.61
3.54	1.58	3.54	3.61	3.16	3.00	3.16	2.83	2.24	2.00	2.24	2.24	1.41	1.00	1.41	2.00	1.00	1.00	2.24	1.41	1.00	1.41	2.83	2.24	2.00	2.24	3.61	3.16	3.00	3.16
3.54	1.58	4.30	4.24	3.61	3.16	3.00	3.61	2.83	2.24	2.00	3.16	2.24	1.41	1.00	3.00	2.00	1.00	3.16	2.24	1.41	1.00	3.61	2.83	2.24	2.00	4.24	3.61	3.16	3.00
5.15	2.55	1.58	4.00	4.12	4.47	5.00	3.00	3.16	3.61	4.24	2.00	2.24	2.83	3.61	1.00	1.41	2.24	3.16	1.00	2.00	3.00	1.00	1.41	2.24	3.16	2.00	2.24	2.83	3.61
4.74	1.58	2.12	4.12	4.00	4.12	4.47	3.16	3.00	3.16	3.61	2.24	2.00	2.24	2.83	1.41	1.00	1.41	2.24	1.00	1.00	2.00	1.41	1.00	1.41	2.24	2.24	2.00	2.24	2.83
4.53	0.71	2.92	4.47	4.12	4.00	4.12	3.61	3.16	3.00	3.16	2.83	2.24	2.00	2.24	2.24	1.41	1.00	1.41	2.00	1.00	1.00	2.24	1.41	1.00	1.41	2.83	2.24	2.00	2.24
4.53	0.71	3.81	5.00	4.47	4.12	4.00	4.24	3.61	3.16	3.00	3.61	2.83	2.24	2.00	3.16	2.24	1.41	1.00	3.00	2.00	1.00	3.16	2.24	1.41	1.00	3.61	2.83	2.24	2.00
6.04	2.55	0.71	5.00	5.10	5.39	5.83	4.00	4.12	4.47	5.00	3.00	3.16	3.61	4.24	2.00	2.24	2.83	3.61	1.00	1.41	2.24	3.16	1.00	2.00	3.00	1.00	1.41	2.24	3.16
5.70	1.58	1.58	5.10	5.00	5.10	5.39	4.12	4.00	4.12	4.47	3.16	3.00	3.16	3.61	2.24	2.00	2.24	2.83	1.41	1.00	1.41	2.24	1.00	1.00	2.00	1.41	1.00	1.41	2.24
5.52	0.71	2.55	5.39	5.10	5.00	5.10	4.47	4.12	4.00	4.12	3.61	3.16	3.00	3.16	2.83	2.24	2.00	2.24	2.24	1.41	1.00	1.41	2.00	1.00	1.00	2.24	1.41	1.00	1.41
5.52	0.71	3.54	5.83	5.39	5.10	5.00	5.00	4.47	4.12	4.00	4.24	3.61	3.16	3.00	3.61	2.83	2.24	2.00	3.16	2.24	1.41	1.00	3.00	2.00	1.00	3.16	2.24	1.41	1.00
6.96	2.92	0.71	6.00	6.08	6.32	6.71	5.00	5.10	5.39	5.83	4.00	4.12	4.47	5.00	3.00	3.16	3.61	4.24	2.00	2.24	2.83	3.61	1.00	1.41	2.24	3.16	1.00	2.00	3.00
6.67	2.12	1.58	6.08	6.00	6.08	6.32	5.10	5.00	5.10	5.39	4.12	4.00	4.12	4.47	3.16	3.00	3.16	3.61	2.24	2.00	2.24	2.83	1.41	1.00	1.41	2.24	1.00	1.00	2.00
6.52	1.58	2.55	6.32	6.08	6.00	6.08	5.39	5.10	5.00	5.10	4.47	4.12	4.00	4.12	3.61	3.16	3.00	3.16	2.83	2.24	2.00	2.24	2.24	1.41	1.00	1.41	2.00	1.00	1.00
6.52	1.58	3.54	6.71	6.32	6.08	6.00	5.83	5.39	5.10	5.00	5.00	4.47	4.12	4.00	4.24	3.61	3.16	3.00	3.61	2.83	2.24	2.00	3.16	2.24	1.41	1.00	3.00	2.00	1.00
];
